outputs/case_446.model.txt
injury_medical_expense_covered = False
disability_benefit_covered = True
death_benefit_covered = True
branch_establishment_approved_by_mof = True
financial_institution_permitted_by_mof = True
claims_handled_properly = True
internal_handling_system_established = True
internal_control_and_audit_system_executed = True
business_direct_transaction_permitted = True
internal_control_and_audit_system_established = True
internal_handling_system_executed = True
underwriting_and_claim_recording_compliance = True
mof_restriction_order_enforced = False
penalty = False
compulsory_insurance_benefit_items = False
branch_establishment_permitted = True
underwriting_data_correctly_recorded = True
mof_restriction_order_active = False
internal_control_and_handling_system_established_and_executed = True